;test regex gsub( "([^-+]+)([+-]{0,1}[0-9]+[.]{0,1}[0-9]*)(.+)", "\\2", c(tester1,tester2) )
(declare-const X String)
(assert (str.in_re X (re.++ (str.to_re "g") (re.++ (str.to_re "s") (re.++ (str.to_re "u") (re.++ (str.to_re "b") (re.++ (re.++ (re.++ (str.to_re " ") (re.++ (str.to_re "\u{22}") (re.++ (re.+ (re.inter (re.diff re.allchar (str.to_re "-")) (re.diff re.allchar (str.to_re "+")))) (re.++ (re.++ ((_ re.loop 0 1) (re.union (str.to_re "+") (str.to_re "-"))) (re.++ (re.+ (re.range "0" "9")) (re.++ ((_ re.loop 0 1) (str.to_re ".")) (re.* (re.range "0" "9"))))) (re.++ (re.+ (re.diff re.allchar (str.to_re "\n"))) (str.to_re "\u{22}")))))) (re.++ (str.to_re ",") (re.++ (str.to_re " ") (re.++ (str.to_re "\u{22}") (re.++ (str.to_re "\\") (re.++ (str.to_re "2") (str.to_re "\u{22}"))))))) (re.++ (str.to_re ",") (re.++ (str.to_re " ") (re.++ (str.to_re "c") (re.++ (re.++ (re.++ (str.to_re "t") (re.++ (str.to_re "e") (re.++ (str.to_re "s") (re.++ (str.to_re "t") (re.++ (str.to_re "e") (re.++ (str.to_re "r") (str.to_re "1"))))))) (re.++ (str.to_re ",") (re.++ (str.to_re "t") (re.++ (str.to_re "e") (re.++ (str.to_re "s") (re.++ (str.to_re "t") (re.++ (str.to_re "e") (re.++ (str.to_re "r") (str.to_re "2"))))))))) (str.to_re " "))))))))))))
; sanitize danger characters:  < > ' " &
(assert (not (str.in_re X (re.++ re.all (re.union (str.to_re "\u{3c}") (str.to_re "\u{3e}") (str.to_re "\u{27}") (str.to_re "\u{22}") (str.to_re "\u{26}")) re.all))))
(assert (< 10 (str.len X)))
(check-sat)
(get-model)